6297.0
1 0 1 0 1 1 1 0 0 0 0 0 0 1 0 0 0 1 0 0 
0 1 2 3 4 5 6 38 39 55 

15 16 17 18 19 20 40 41 43 58 59 60 61 71 

21 22 23 24 25 26 27 28 42 
29 30 31 32 33 34 35 36 37 49 56 
7 8 9 10 11 12 13 14 48 57 62 69 78 






44 46 47 50 51 53 54 64 65 68 70 72 79 



45 52 63 66 67 73 74 75 76 77 


